85

N	43.2700	24.6300	54.7900
H	43.1400	24.7200	55.7900
C	42.1600	24.7600	53.8800
H	42.1900	23.9200	53.1900
C	40.8300	24.5100	54.5900
H	40.7500	25.2100	55.4100
H	40.8100	23.5400	55.0900
C	39.6200	24.3800	53.6600
H	39.5900	25.3000	53.0700
C	39.6600	23.2100	52.6900
H	40.4300	23.3900	51.9300
H	40.0000	22.3000	53.1900
H	38.6900	23.0600	52.2300
C	38.3400	24.3100	54.4900
H	38.2100	23.3100	54.8800
H	38.3400	25.0700	55.2700
H	37.5100	24.4500	53.8000
C	42.1200	26.1000	53.1600
O	41.7500	26.2300	51.9900
N	42.7000	27.1100	53.8100
H	42.9300	27.0100	54.7900
C	43.0000	28.4000	53.2300
H	42.0400	28.9100	53.1900
C	43.9400	29.1700	54.1500
H	43.3900	29.1800	55.1000
C	45.2500	28.4500	54.4500
H	45.5900	28.8400	55.4100
H	45.1200	27.3900	54.6800
H	45.9100	28.4900	53.5900
C	44.1700	30.5900	53.6500
H	44.6200	31.2100	54.4200
H	44.6700	30.7400	52.6900
H	43.2400	31.1500	53.5000
C	43.5900	28.3800	51.8300
O	43.1700	29.1300	50.9500
N	44.5600	27.5100	51.5400
H	44.8300	26.8900	52.2900
C	45.2100	27.3100	50.2600
H	45.7000	28.2500	50.0200
C	46.4200	26.4100	50.4400
H	45.9100	25.4900	50.7500
H	47.0500	26.8000	51.2400
C	47.1900	26.1600	49.1700
C	47.8100	27.1900	48.4500
H	47.5800	28.2000	48.7500
C	48.5300	26.9400	47.2800
H	49.0100	27.7500	46.7500
C	48.5800	25.6500	46.7300
H	49.1500	25.4600	45.8400
C	47.9800	24.6100	47.4600
H	47.9100	23.5900	47.0900
C	47.2900	24.8600	48.6400
H	46.7600	24.0800	49.1800
C	44.2800	26.9400	49.1100
O	44.4200	27.5300	48.0400
N	43.2700	26.1200	49.4200
H	43.1500	25.8600	50.3800
C	42.2500	25.5600	48.5500
H	42.7500	25.3300	47.6100
C	41.6300	24.3100	49.1700
H	40.8400	23.9600	48.5100
H	41.2600	24.5700	50.1600
C	42.6300	23.2000	49.4100
C	42.6600	22.1700	48.4500
H	42.0900	22.1200	47.5400
C	43.6200	21.1700	48.6000
H	43.5800	20.3600	47.8900
C	44.5700	21.1300	49.6400
H	45.2700	20.3200	49.7600
C	44.5400	22.1700	50.5700
H	45.2700	22.3000	51.3600
C	43.6300	23.2200	50.3800
H	43.7800	24.0400	51.0600
C	41.1800	26.6100	48.2800
O	40.5800	26.5200	47.2100
N	41.0100	27.6500	49.1000
H	41.5300	27.5700	49.9600
C	40.2800	28.8300	48.6700
H	39.3800	28.4600	48.1700
C	39.8600	29.6300	49.8900
H	39.2700	30.4600	49.4900
H	39.1800	29.0100	50.4700
H	40.7600	29.9500	50.4200
C	41.0300	29.6700	47.6500
O	40.6100	29.7600	46.5000
