85

N	94.9500	40.2300	30.4000
H	94.2300	39.5300	30.4700
C	95.5100	40.5000	29.0600
H	96.5700	40.3000	28.9000
C	94.9200	39.4500	28.1100
H	93.8300	39.4600	28.1100
H	95.1800	38.4800	28.5300
C	95.4400	39.4200	26.6700
H	95.5800	40.3600	26.1400
C	96.8200	38.8200	26.4900
H	96.7600	37.7500	26.6700
H	97.1600	39.0200	25.4800
H	97.4600	39.3300	27.2100
C	94.6000	38.5900	25.7400
H	94.9700	38.4800	24.7200
H	94.4900	37.6100	26.2200
H	93.6200	39.0400	25.5700
C	95.2500	41.9400	28.6100
O	94.1800	42.2600	28.1000
N	96.2700	42.8200	28.6700
H	97.2100	42.4800	28.8100
C	96.2000	44.2000	28.1400
H	95.3600	44.2500	27.4400
C	96.0800	45.2400	29.2200
H	96.2400	46.2600	28.8700
C	94.6600	45.3100	29.6500
H	94.2700	44.3800	30.0500
H	94.5200	46.0000	30.4800
H	94.0700	45.7200	28.8300
C	96.9500	45.0600	30.5100
H	96.7300	45.8000	31.2800
H	96.6200	44.1500	31.0100
H	98.0000	45.0400	30.2400
C	97.4800	44.6000	27.3900
O	98.5300	44.0500	27.6700
N	97.4800	45.6700	26.5600
H	96.5700	46.0700	26.3600
C	98.6800	46.2400	25.9300
H	99.1600	45.3100	25.6400
C	98.1000	46.9900	24.6600
H	98.9300	47.3700	24.0600
H	97.5000	47.8600	24.9100
C	97.3400	46.0800	23.7900
C	98.0400	45.2000	22.9800
H	99.1200	45.2700	22.9900
C	97.3200	44.3300	22.1200
H	97.8600	43.6200	21.5000
C	95.9000	44.2400	22.2100
H	95.3900	43.4100	21.7300
C	95.2100	45.2300	22.9600
H	94.1400	45.3000	22.9500
C	95.8900	46.1300	23.7600
H	95.3200	46.8200	24.3600
C	99.5500	47.0700	26.9600
O	100.6100	47.5300	26.6100
N	99.0700	47.2900	28.1700
H	98.2100	46.8000	28.3900
C	99.6300	48.3300	29.0900
H	100.3500	48.9800	28.6000
C	98.4400	49.1800	29.4500
H	98.5900	49.8400	30.3100
H	97.5900	48.6700	29.9000
C	98.0300	50.0800	28.3300
C	98.8300	51.2600	28.1100
H	99.7800	51.4400	28.5900
C	98.4000	52.1000	27.0700
H	99.0100	52.9600	26.8400
C	97.3200	51.7200	26.2900
H	97.1900	52.3800	25.4400
C	96.5100	50.5900	26.5300
H	95.7300	50.3600	25.8200
C	96.8100	49.8800	27.6700
H	96.3000	48.9600	27.9300
C	100.3900	47.6700	30.2700
O	101.1800	48.3700	30.8900
N	100.2200	46.3400	30.5100
H	99.8100	45.9000	29.7000
C	100.9700	45.6000	31.5100
H	102.0100	45.9200	31.5200
C	100.4300	45.9300	32.9000
H	99.4500	45.4700	33.0500
H	101.0600	45.4500	33.6500
H	100.4200	46.9800	33.1600
C	101.0800	44.0800	31.2500
O	100.1800	43.4800	30.6000
